NAME: ./prFile/tspFile/tsp_file70.tsp
COMMENT: TSP file generated by Python
TYPE: TSP
DIMENSION: 40
EDGE_WEIGHT_TYPE: EUC_2D
NODE_COORD_SECTION
1 58 93
2 72 76
3 79 79
4 19 43
5 46 23
6 51 10
7 9 18
8 22 31
9 36 29
10 31 66
11 91 9
12 44 38
13 98 85
14 40 97
15 20 16
16 44 57
17 28 22
18 88 49
19 86 25
20 4 7
21 58 84
22 89 25
23 18 81
24 52 44
25 98 61
26 43 33
27 10 25
28 79 8
29 30 15
30 96 36
31 96 64
32 85 83
33 23 10
34 44 86
35 17 5
36 93 25
37 22 93
38 16 82
39 57 75
40 44 65
EOF
